40
1 0 72
2 0 38
2 1 73
3 0 1
3 1 59
3 2 31
4 0 70
4 1 39
4 2 3
4 3 31
5 0 5
5 1 7
5 2 61
5 3 3
5 4 76
6 0 71
6 1 64
6 2 46
6 3 50
6 4 44
6 5 51
7 0 9
7 1 18
7 2 8
7 3 18
7 4 24
7 5 69
7 6 53
8 0 50
8 1 80
8 2 7
8 3 36
8 4 43
8 5 50
8 6 49
8 7 20
9 0 55
9 1 16
9 2 8
9 3 5
9 4 54
9 5 30
9 6 75
9 7 71
9 8 67
10 0 66
10 1 33
10 2 33
10 3 7
10 4 66
10 5 63
10 6 37
10 7 77
10 8 76
10 9 12
11 0 29
11 1 18
11 2 20
11 3 76
11 4 30
11 5 57
11 6 14
11 7 52
11 8 15
11 9 34
11 10 20
12 0 1
12 1 72
12 2 72
12 3 17
12 4 58
12 5 1
12 6 38
12 7 8
12 8 51
12 9 30
12 10 72
12 11 49
13 0 48
13 1 17
13 2 38
13 3 45
13 4 62
13 5 38
13 6 48
13 7 33
13 8 77
13 9 24
13 10 38
13 11 1
13 12 16
14 0 21
14 1 27
14 2 16
14 3 59
14 4 57
14 5 30
14 6 73
14 7 6
14 8 33
14 9 31
14 10 63
14 11 72
14 12 12
14 13 48
15 0 42
15 1 61
15 2 16
15 3 35
15 4 37
15 5 3
15 6 60
15 7 80
15 8 13
15 9 49
15 10 49
15 11 49
15 12 72
15 13 80
15 14 67
16 0 50
16 1 37
16 2 12
16 3 17
16 4 40
16 5 38
16 6 11
16 7 43
16 8 53
16 9 28
16 10 11
16 11 19
16 12 57
16 13 34
16 14 67
16 15 71
17 0 14
17 1 79
17 2 79
17 3 28
17 4 36
17 5 21
17 6 45
17 7 75
17 8 11
17 9 30
17 10 12
17 11 50
17 12 45
17 13 11
17 14 8
17 15 18
17 16 18
18 0 78
18 1 69
18 2 17
18 3 56
18 4 34
18 5 34
18 6 24
18 7 71
18 8 78
18 9 61
18 10 24
18 11 75
18 12 16
18 13 61
18 14 51
18 15 10
18 16 44
18 17 77
19 0 51
19 1 32
19 2 3
19 3 17
19 4 41
19 5 49
19 6 68
19 7 73
19 8 34
19 9 35
19 10 52
19 11 46
19 12 31
19 13 46
19 14 73
19 15 64
19 16 59
19 17 66
19 18 64
20 0 69
20 1 18
20 2 74
20 3 18
20 4 56
20 5 27
20 6 37
20 7 13
20 8 63
20 9 16
20 10 10
20 11 33
20 12 19
20 13 6
20 14 7
20 15 31
20 16 11
20 17 39
20 18 32
20 19 36
21 0 5
21 1 38
21 2 45
21 3 7
21 4 7
21 5 30
21 6 55
21 7 74
21 8 63
21 9 14
21 10 5
21 11 10
21 12 19
21 13 37
21 14 65
21 15 80
21 16 57
21 17 31
21 18 78
21 19 57
21 20 66
22 0 17
22 1 39
22 2 27
22 3 10
22 4 20
22 5 46
22 6 69
22 7 44
22 8 42
22 9 47
22 10 54
22 11 21
22 12 16
22 13 37
22 14 58
22 15 42
22 16 57
22 17 11
22 18 37
22 19 71
22 20 16
22 21 65
23 0 10
23 1 69
23 2 42
23 3 51
23 4 4
23 5 48
23 6 10
23 7 27
23 8 4
23 9 40
23 10 39
23 11 5
23 12 3
23 13 53
23 14 65
23 15 5
23 16 36
23 17 46
23 18 28
23 19 21
23 20 11
23 21 48
23 22 31
24 0 65
24 1 64
24 2 76
24 3 71
24 4 3
24 5 10
24 6 25
24 7 20
24 8 47
24 9 8
24 10 33
24 11 56
24 12 39
24 13 31
24 14 79
24 15 23
24 16 42
24 17 46
24 18 4
24 19 38
24 20 13
24 21 48
24 22 38
24 23 64
25 0 67
25 1 70
25 2 15
25 3 12
25 4 38
25 5 69
25 6 40
25 7 48
25 8 27
25 9 76
25 10 41
25 11 53
25 12 70
25 13 5
25 14 27
25 15 68
25 16 72
25 17 27
25 18 71
25 19 36
25 20 26
25 21 56
25 22 24
25 23 9
25 24 38
26 0 21
26 1 19
26 2 52
26 3 35
26 4 69
26 5 56
26 6 7
26 7 12
26 8 8
26 9 7
26 10 2
26 11 5
26 12 62
26 13 50
26 14 45
26 15 57
26 16 48
26 17 25
26 18 45
26 19 38
26 20 34
26 21 16
26 22 4
26 23 17
26 24 43
26 25 36
27 0 66
27 1 72
27 2 58
27 3 53
27 4 55
27 5 4
27 6 7
27 7 18
27 8 73
27 9 68
27 10 68
27 11 71
27 12 63
27 13 11
27 14 52
27 15 52
27 16 26
27 17 53
27 18 6
27 19 61
27 20 48
27 21 36
27 22 31
27 23 27
27 24 19
27 25 67
27 26 58
28 0 79
28 1 69
28 2 65
28 3 16
28 4 32
28 5 67
28 6 51
28 7 57
28 8 62
28 9 33
28 10 74
28 11 36
28 12 45
28 13 2
28 14 38
28 15 14
28 16 73
28 17 50
28 18 55
28 19 7
28 20 66
28 21 6
28 22 41
28 23 50
28 24 60
28 25 3
28 26 67
28 27 44
29 0 29
29 1 70
29 2 11
29 3 20
29 4 45
29 5 50
29 6 57
29 7 1
29 8 3
29 9 74
29 10 49
29 11 63
29 12 67
29 13 29
29 14 38
29 15 42
29 16 79
29 17 76
29 18 40
29 19 35
29 20 70
29 21 32
29 22 35
29 23 30
29 24 79
29 25 36
29 26 34
29 27 32
29 28 32
30 0 45
30 1 66
30 2 27
30 3 69
30 4 49
30 5 45
30 6 41
30 7 41
30 8 35
30 9 46
30 10 27
30 11 45
30 12 23
30 13 28
30 14 28
30 15 38
30 16 58
30 17 55
30 18 61
30 19 32
30 20 28
30 21 7
30 22 49
30 23 1
30 24 29
30 25 46
30 26 24
30 27 73
30 28 7
30 29 54
31 0 70
31 1 30
31 2 56
31 3 75
31 4 36
31 5 72
31 6 76
31 7 17
31 8 47
31 9 77
31 10 42
31 11 50
31 12 39
31 13 4
31 14 29
31 15 67
31 16 43
31 17 50
31 18 17
31 19 8
31 20 15
31 21 62
31 22 73
31 23 24
31 24 41
31 25 47
31 26 49
31 27 64
31 28 70
31 29 53
31 30 43
32 0 72
32 1 33
32 2 8
32 3 14
32 4 13
32 5 31
32 6 3
32 7 11
32 8 6
32 9 45
32 10 43
32 11 57
32 12 42
32 13 21
32 14 20
32 15 16
32 16 27
32 17 44
32 18 35
32 19 31
32 20 53
32 21 70
32 22 1
32 23 64
32 24 78
32 25 9
32 26 68
32 27 40
32 28 19
32 29 60
32 30 36
32 31 54
33 0 80
33 1 55
33 2 54
33 3 25
33 4 73
33 5 71
33 6 22
33 7 47
33 8 67
33 9 78
33 10 23
33 11 60
33 12 26
33 13 22
33 14 48
33 15 66
33 16 30
33 17 11
33 18 14
33 19 17
33 20 54
33 21 27
33 22 72
33 23 3
33 24 54
33 25 3
33 26 69
33 27 5
33 28 25
33 29 49
33 30 49
33 31 7
33 32 6
34 0 7
34 1 62
34 2 38
34 3 69
34 4 27
34 5 72
34 6 23
34 7 71
34 8 9
34 9 45
34 10 65
34 11 25
34 12 31
34 13 3
34 14 59
34 15 47
34 16 75
34 17 13
34 18 24
34 19 54
34 20 76
34 21 78
34 22 75
34 23 45
34 24 74
34 25 36
34 26 33
34 27 54
34 28 47
34 29 37
34 30 39
34 31 23
34 32 10
34 33 46
35 0 36
35 1 71
35 2 14
35 3 35
35 4 18
35 5 12
35 6 43
35 7 71
35 8 65
35 9 77
35 10 8
35 11 80
35 12 20
35 13 52
35 14 76
35 15 52
35 16 36
35 17 30
35 18 24
35 19 38
35 20 38
35 21 24
35 22 67
35 23 9
35 24 12
35 25 9
35 26 53
35 27 18
35 28 12
35 29 64
35 30 68
35 31 50
35 32 69
35 33 78
35 34 23
36 0 44
36 1 59
36 2 1
36 3 33
36 4 77
36 5 68
36 6 68
36 7 78
36 8 18
36 9 71
36 10 16
36 11 68
36 12 58
36 13 77
36 14 41
36 15 53
36 16 16
36 17 58
36 18 80
36 19 51
36 20 75
36 21 60
36 22 35
36 23 7
36 24 76
36 25 19
36 26 55
36 27 19
36 28 63
36 29 45
36 30 10
36 31 34
36 32 74
36 33 79
36 34 21
36 35 77
37 0 38
37 1 51
37 2 41
37 3 4
37 4 61
37 5 68
37 6 57
37 7 40
37 8 18
37 9 9
37 10 65
37 11 29
37 12 37
37 13 22
37 14 6
37 15 39
37 16 38
37 17 78
37 18 31
37 19 61
37 20 29
37 21 25
37 22 65
37 23 47
37 24 9
37 25 6
37 26 20
37 27 46
37 28 16
37 29 24
37 30 76
37 31 66
37 32 5
37 33 70
37 34 32
37 35 16
37 36 64
38 0 31
38 1 33
38 2 24
38 3 53
38 4 40
38 5 68
38 6 16
38 7 76
38 8 46
38 9 14
38 10 11
38 11 51
38 12 26
38 13 48
38 14 54
38 15 69
38 16 52
38 17 60
38 18 79
38 19 63
38 20 75
38 21 7
38 22 35
38 23 68
38 24 50
38 25 25
38 26 40
38 27 13
38 28 54
38 29 59
38 30 47
38 31 50
38 32 14
38 33 16
38 34 44
38 35 8
38 36 39
38 37 1
39 0 67
39 1 52
39 2 33
39 3 10
39 4 34
39 5 53
39 6 30
39 7 33
39 8 20
39 9 26
39 10 56
39 11 56
39 12 50
39 13 79
39 14 15
39 15 8
39 16 62
39 17 10
39 18 75
39 19 55
39 20 60
39 21 1
39 22 76
39 23 39
39 24 5
39 25 38
39 26 63
39 27 44
39 28 78
39 29 6
39 30 48
39 31 25
39 32 19
39 33 63
39 34 21
39 35 60
39 36 51
39 37 78
39 38 19
